networks/zoo_35_184/standard/zoo_35_184.sol
<?xml version = "1.0" encoding="UTF-8" standalone="yes"?>
<CPLEXSolution version="1.2">
 <header
   problemName="networks/zoo_35_184/zoo_35_184.lp"
   solutionName="incumbent"
   solutionIndex="-1"
   objectiveValue="19"
   solutionTypeValue="3"
   solutionTypeString="primal"
   solutionStatusValue="101"
   solutionStatusString="integer optimal solution"
   solutionMethodString="mip"
   primalFeasible="1"
   dualFeasible="1"
   MIPNodes="0"
   MIPIterations="1837"
   writeLevel="3"/>
 <quality
   epInt="1.0000000000000001e-05"
   epRHS="9.9999999999999995e-07"
   maxIntInfeas="0"
   maxPrimalInfeas="8.8817841970012523e-16"
   maxX="4"
   maxSlack="10"/>
 <variables>
  <variable name="Y(4,6)" index="110" value="1"/>
  <variable name="Y(19,9)" index="638" value="1"/>
  <variable name="Y(20,10)" index="674" value="1"/>
  <variable name="Y(24,14)" index="818" value="1"/>
  <variable name="Y(44,7)" index="1511" value="1"/>
  <variable name="Y(59,17)" index="2046" value="1"/>
  <variable name="Y(62,3)" index="2137" value="1"/>
  <variable name="Y(88,4)" index="3048" value="1"/>
  <variable name="Y(92,12)" index="3196" value="1"/>
  <variable name="Y(97,1)" index="3360" value="1"/>
  <variable name="Y(100,1)" index="3465" value="1"/>
  <variable name="Y(111,15)" index="3864" value="1"/>
  <variable name="Y(126,5)" index="4379" value="1"/>
  <variable name="Y(138,16)" index="4810" value="1"/>
  <variable name="Y(147,16)" index="5125" value="1"/>
  <variable name="Y(166,8)" index="5782" value="1"/>
  <variable name="Y(167,11)" index="5820" value="1"/>
  <variable name="Y(173,2)" index="6021" value="1"/>
  <variable name="Y(181,13)" index="6312" value="1"/>
  <variable name="X(1,2,100)" index="6539" value="1"/>
  <variable name="X(1,3,4)" index="6627" value="1"/>
  <variable name="X(1,19,97)" index="6904" value="1"/>
  <variable name="X(2,1,97)" index="7088" value="1"/>
  <variable name="X(2,4,88)" index="7263" value="1"/>
  <variable name="X(2,7,44)" index="7403" value="1"/>
  <variable name="X(2,20,173)" index="7716" value="1"/>
  <variable name="X(3,1,100)" index="7827" value="1"/>
  <variable name="X(3,6,4)" index="7915" value="1"/>
  <variable name="X(3,10,20)" index="8115" value="1"/>
  <variable name="X(3,21,62)" index="8341" value="1"/>
  <variable name="X(4,2,44)" index="8507" value="1"/>
  <variable name="X(4,22,88)" index="8735" value="1"/>
  <variable name="X(5,13,59)" index="8890" value="1"/>
  <variable name="X(5,23,126)" index="9141" value="1"/>
  <variable name="X(6,3,62)" index="9261" value="1"/>
  <variable name="X(6,24,4)" index="9387" value="1"/>
  <variable name="X(7,2,97)" index="9664" value="1"/>
  <variable name="X(7,13,19)" index="9770" value="1"/>
  <variable name="X(7,25,44)" index="9979" value="1"/>
  <variable name="X(8,13,92)" index="10211" value="1"/>
  <variable name="X(8,26,166)" index="10469" value="1"/>
  <variable name="X(9,13,97)" index="10584" value="1"/>
  <variable name="X(9,27,19)" index="10690" value="1"/>
  <variable name="X(10,3,100)" index="10955" value="1"/>
  <variable name="X(10,28,20)" index="11059" value="1"/>
  <variable name="X(11,12,111)" index="11334" value="1"/>
  <variable name="X(11,29,167)" index="11574" value="1"/>
  <variable name="X(12,11,167)" index="11758" value="1"/>
  <variable name="X(12,13,111)" index="11886" value="1"/>
  <variable name="X(12,30,92)" index="12051" value="1"/>
  <variable name="X(13,5,126)" index="12269" value="1"/>
  <variable name="X(13,7,97)" index="12424" value="1"/>
  <variable name="X(13,8,166)" index="12677" value="1"/>
  <variable name="X(13,9,19)" index="12714" value="1"/>
  <variable name="X(13,12,92)" index="12971" value="1"/>
  <variable name="X(13,16,111)" index="13174" value="1"/>
  <variable name="X(13,17,59)" index="13306" value="1"/>
  <variable name="X(13,31,181)" index="13612" value="1"/>
  <variable name="X(14,16,138)" index="13753" value="1"/>
  <variable name="X(14,32,24)" index="13823" value="1"/>
  <variable name="X(15,16,147)" index="14130" value="1"/>
  <variable name="X(15,33,111)" index="14278" value="1"/>
  <variable name="X(16,13,138)" index="14489" value="1"/>
  <variable name="X(16,14,24)" index="14559" value="1"/>
  <variable name="X(16,15,111)" index="14830" value="1"/>
  <variable name="X(16,34,147)" index="15050" value="1"/>
  <variable name="X(17,13,166)" index="15253" value="1"/>
  <variable name="X(17,35,59)" index="15330" value="1"/>
  <variable name="X(18,13,181)" index="15636" value="1"/>
  <variable name="C(4,3)" index="15648" value="1"/>
  <variable name="C(4,6)" index="15649" value="2"/>
  <variable name="C(19,13)" index="15708" value="1"/>
  <variable name="C(19,9)" index="15709" value="2"/>
  <variable name="C(20,10)" index="15713" value="1"/>
  <variable name="C(24,14)" index="15730" value="1"/>
  <variable name="C(44,2)" index="15821" value="1"/>
  <variable name="C(44,7)" index="15822" value="2"/>
  <variable name="C(59,13)" index="15882" value="1"/>
  <variable name="C(59,17)" index="15883" value="2"/>
  <variable name="C(62,3)" index="15892" value="1"/>
  <variable name="C(88,4)" index="16013" value="1"/>
  <variable name="C(92,13)" index="16029" value="1"/>
  <variable name="C(92,12)" index="16030" value="2"/>
  <variable name="C(97,13)" index="16044" value="1"/>
  <variable name="C(97,7)" index="16045" value="2"/>
  <variable name="C(97,2)" index="16046" value="3"/>
  <variable name="C(97,1)" index="16047" value="4"/>
  <variable name="C(100,3)" index="16054" value="1"/>
  <variable name="C(100,1)" index="16055" value="2"/>
  <variable name="C(111,12)" index="16112" value="0.99999999999999956"/>
  <variable name="C(111,13)" index="16113" value="1.9999999999999996"/>
  <variable name="C(111,16)" index="16114" value="2.9999999999999996"/>
  <variable name="C(111,15)" index="16115" value="4"/>
  <variable name="C(126,5)" index="16172" value="1"/>
  <variable name="C(138,16)" index="16207" value="1"/>
  <variable name="C(147,16)" index="16249" value="1"/>
  <variable name="C(166,13)" index="16328" value="1"/>
  <variable name="C(166,8)" index="16329" value="1.9999999999999991"/>
  <variable name="C(167,11)" index="16333" value="1"/>
  <variable name="C(181,18)" index="16386" value="3"/>
  <variable name="C(181,13)" index="16387" value="4"/>
 </variables>
</CPLEXSolution>
